# Cost: 242

# Tail Head Net
33 13 1
34 33 1
35 34 1
256 656 1
257 256 1
277 257 1
277 297 1
278 277 1
279 278 1
280 279 1
297 317 1
317 337 1
337 357 1
357 377 1
377 397 1
391 390 1
392 391 1
393 392 1
394 393 1
395 394 1
396 395 1
397 396 1
435 35 1
455 435 1
475 455 1
495 475 1
515 495 1
535 515 1
555 535 1
575 555 1
576 575 1
596 576 1
616 596 1
636 616 1
656 636 1
18 19 2
19 20 2
36 37 2
37 38 2
38 18 2
54 55 2
55 56 2
56 36 2
141 142 2
142 143 2
143 144 2
144 145 2
145 146 2
145 165 2
146 147 2
147 148 2
148 149 2
149 150 2
150 151 2
151 152 2
152 552 2
165 185 2
185 205 2
205 225 2
225 245 2
245 265 2
265 285 2
285 305 2
305 325 2
325 345 2
345 365 2
365 385 2
453 454 2
454 54 2
473 453 2
493 473 2
513 493 2
533 513 2
552 553 2
553 533 2
28 8 3
48 28 3
68 48 3
220 620 3
326 346 3
346 366 3
366 386 3
468 68 3
488 468 3
508 488 3
528 508 3
548 528 3
568 548 3
588 568 3
608 588 3
620 640 3
628 608 3
640 660 3
648 628 3
660 680 3
666 686 3
667 666 3
668 648 3
668 667 3
669 668 3
670 669 3
671 670 3
672 671 3
673 672 3
674 673 3
675 674 3
676 675 3
677 676 3
678 677 3
679 678 3
680 679 3
680 700 3
686 706 3
700 300 3
706 726 3
726 326 3
221 201 4
241 221 4
261 241 4
261 281 4
281 301 4
301 321 4
321 341 4
341 361 4
361 381 4
381 382 4
382 383 4
16 416 5
189 209 5
209 229 5
229 249 5
249 269 5
269 289 5
289 309 5
309 329 5
329 349 5
349 369 5
369 389 5
410 430 5
411 410 5
412 12 5
412 411 5
413 412 5
414 413 5
415 414 5
416 415 5
430 450 5
441 41 5
442 441 5
443 442 5
444 443 5
445 444 5
446 445 5
447 446 5
448 447 5
449 448 5
449 469 5
450 449 5
469 489 5
489 509 5
509 529 5
529 549 5
549 569 5
569 589 5
589 189 5
4 5 6
5 6 6
6 7 6
7 27 6
27 47 6
47 67 6
67 87 6
87 88 6
88 108 6
108 109 6
109 110 6
110 111 6
111 112 6
112 113 6
113 114 6
114 115 6
115 116 6
116 117 6
117 118 6
118 119 6
119 120 6
120 140 6
140 160 6
160 180 6
180 200 6
1 2 7
2 22 7
22 42 7
42 62 7
62 82 7
82 102 7
102 103 7
103 104 7
104 105 7
105 106 7
106 126 7
126 127 7
127 128 7
128 129 7
129 130 7
130 131 7
131 132 7
132 133 7
133 134 7
134 154 7
154 155 7
155 156 7
156 176 7
176 177 7
177 178 7
178 198 7
198 199 7
199 219 7
219 239 7
239 240 7
9 409 8
29 9 8
49 29 8
69 49 8
70 69 8
71 70 8
72 71 8
73 72 8
74 73 8
75 74 8
76 75 8
77 76 8
78 77 8
79 78 8
80 79 8
403 3 8
404 403 8
405 404 8
406 405 8
407 406 8
408 407 8
409 408 8
